(set-logic ALL)
(declare-fun var0 () String)
(assert (str.in_re var0 (re.++ (re.+ (re.* (str.to_re "000"))) (re.++ (re.* (re.union (str.to_re "1") (str.to_re "2"))) (re.++ (re.+ (re.+ (str.to_re "33"))) (re.++ (re.* (re.+ (str.to_re "444"))) (re.++ (re.union (re.+ (str.to_re "5")) (re.+ (str.to_re "666"))) (re.++ (re.* (re.* (str.to_re "77"))) (re.++ (re.* (re.union (str.to_re "88") (str.to_re "99"))) (re.++ (re.union (re.* (str.to_re "aa")) (re.* (str.to_re "bbb"))) (re.++ (re.union (re.union (str.to_re "c") (str.to_re "d")) (re.union (str.to_re "e") (str.to_re "ff"))) (re.++ (re.* (re.union (str.to_re "ggg") (str.to_re "hh"))) (re.++ (re.+ (re.+ (str.to_re "ii"))) (re.++ (re.* (re.+ (str.to_re "j"))) (re.++ (re.+ (re.union (str.to_re "kkk") (str.to_re "l"))) (re.++ (re.union (re.union (str.to_re "mmm") (str.to_re "n")) (re.union (str.to_re "oo") (str.to_re "p"))) (re.++ (re.+ (re.* (str.to_re "q"))) (re.++ (re.* (re.union (str.to_re "rrr") (str.to_re "ss"))) (re.++ (re.* (re.* (str.to_re "ttt"))) (re.++ (re.+ (re.+ (str.to_re "uuu"))) (re.++ (re.+ (re.+ (str.to_re "vvv"))) (re.++ (re.+ (re.* (str.to_re "www"))) (re.++ (re.* (re.* (str.to_re "x"))) (re.++ (re.union (re.union (str.to_re "y") (str.to_re "z")) (re.union (str.to_re "A") (str.to_re "B"))) (re.++ (re.+ (re.+ (str.to_re "CCC"))) (re.++ (re.+ (re.union (str.to_re "D") (str.to_re "EE"))) (re.++ (re.* (re.+ (str.to_re "FF"))) (re.++ (re.union (re.* (str.to_re "G")) (re.* (str.to_re "H"))) (re.++ (re.* (re.* (str.to_re "III"))) (re.++ (re.union (re.+ (str.to_re "JJJ")) (re.+ (str.to_re "KK"))) (re.++ (re.+ (re.+ (str.to_re "LL"))) (re.++ (re.* (re.+ (str.to_re "MM"))) (re.++ (re.* (re.+ (str.to_re "NNN"))) (re.++ (re.* (re.+ (str.to_re "OOO"))) (re.++ (re.+ (re.union (str.to_re "P") (str.to_re "QQ"))) (re.++ (re.+ (re.* (str.to_re "RRR"))) (re.++ (re.union (re.* (str.to_re "S")) (re.* (str.to_re "TT"))) (re.++ (re.* (re.* (str.to_re "UUU"))) (re.++ (re.union (re.+ (str.to_re "V")) (re.+ (str.to_re "W"))) (re.++ (re.+ (re.* (str.to_re "XX"))) (re.++ (re.union (re.+ (str.to_re "YY")) (re.+ (str.to_re "ZZZ"))) (re.++ (re.union (re.+ (str.to_re "!")) (re.+ (str.to_re """"))) (re.++ (re.+ (re.union (str.to_re "###") (str.to_re "$"))) (re.++ (re.* (re.* (str.to_re "%%"))) (re.++ (re.* (re.* (str.to_re "&&&"))) (re.++ (re.* (re.union (str.to_re "''") (str.to_re "((("))) (re.++ (re.* (re.+ (str.to_re ")))"))) (re.++ (re.* (re.+ (str.to_re "*"))) (re.++ (re.+ (re.union (str.to_re "+++") (str.to_re ",,,"))) (re.++ (re.+ (re.* (str.to_re "---"))) (re.++ (re.union (re.+ (str.to_re ".")) (re.+ (str.to_re "//"))) (re.++ (re.union (re.+ (str.to_re ":")) (re.+ (str.to_re ";;;"))) (re.++ (re.* (re.union (str.to_re "<<") (str.to_re "="))) (re.++ (re.* (re.+ (str.to_re ">>>"))) (re.++ (re.* (re.union (str.to_re "??") (str.to_re "@"))) (re.++ (re.+ (re.* (str.to_re "[["))) (re.++ (re.union (re.+ (str.to_re "\\\\")) (re.+ (str.to_re "]"))) (re.++ (re.+ (re.union (str.to_re "^^") (str.to_re "__"))) (re.++ (re.union (re.union (str.to_re "```") (str.to_re "{{")) (re.union (str.to_re "|") (str.to_re "}"))) (re.++ (re.* (re.* (str.to_re "~~~"))) (re.++ (re.union (re.+ (str.to_re "0")) (re.+ (str.to_re "111"))) (re.++ (re.union (re.+ (str.to_re "2")) (re.+ (str.to_re "333"))) (re.++ (re.* (re.union (str.to_re "444") (str.to_re "5"))) (re.++ (re.+ (re.union (str.to_re "666") (str.to_re "7"))) (re.++ (re.* (re.+ (str.to_re "8"))) (re.++ (re.* (re.+ (str.to_re "9"))) (re.++ (re.* (re.* (str.to_re "aaa"))) (re.++ (re.union (re.+ (str.to_re "bb")) (re.+ (str.to_re "ccc"))) (re.++ (re.union (re.union (str.to_re "d") (str.to_re "eee")) (re.union (str.to_re "f") (str.to_re "g"))) (re.++ (re.* (re.+ (str.to_re "hhh"))) (re.++ (re.* (re.* (str.to_re "iii"))) (re.++ (re.union (re.* (str.to_re "j")) (re.* (str.to_re "kkk"))) (re.++ (re.union (re.+ (str.to_re "ll")) (re.+ (str.to_re "mmm"))) (re.++ (re.* (re.* (str.to_re "n"))) (re.++ (re.* (re.+ (str.to_re "o"))) (re.++ (re.+ (re.* (str.to_re "pp"))) (re.++ (re.+ (re.+ (str.to_re "q"))) (re.++ (re.* (re.union (str.to_re "rrr") (str.to_re "sss"))) (re.++ (re.+ (re.union (str.to_re "tt") (str.to_re "uu"))) (re.++ (re.union (re.+ (str.to_re "vv")) (re.+ (str.to_re "w"))) (re.++ (re.union (re.* (str.to_re "x")) (re.* (str.to_re "yy"))) (re.++ (re.+ (re.* (str.to_re "zzz"))) (re.++ (re.+ (re.union (str.to_re "AAA") (str.to_re "B"))) (re.++ (re.+ (re.+ (str.to_re "C"))) (re.++ (re.+ (re.union (str.to_re "DDD") (str.to_re "EE"))) (re.++ (re.* (re.union (str.to_re "FFF") (str.to_re "GGG"))) (re.++ (re.+ (re.union (str.to_re "HHH") (str.to_re "III"))) (re.++ (re.+ (re.+ (str.to_re "J"))) (re.++ (re.union (re.union (str.to_re "K") (str.to_re "LLL")) (re.union (str.to_re "MM") (str.to_re "NNN"))) (re.++ (re.+ (re.+ (str.to_re "OOO"))) (re.++ (re.* (re.union (str.to_re "PP") (str.to_re "QQ"))) (re.++ (re.+ (re.* (str.to_re "RR"))) (re.++ (re.union (re.union (str.to_re "SSS") (str.to_re "TT")) (re.union (str.to_re "U") (str.to_re "V"))) (re.++ (re.union (re.* (str.to_re "W")) (re.* (str.to_re "XXX"))) (re.++ (re.union (re.+ (str.to_re "Y")) (re.+ (str.to_re "Z"))) (re.++ (re.+ (re.* (str.to_re "!!"))) (re.++ (re.+ (re.union (str.to_re """""""") (str.to_re "#"))) (re.++ (re.union (re.+ (str.to_re "$")) (re.+ (str.to_re "%%"))) (re.++ (re.+ (re.* (str.to_re "&"))) (re.++ (re.+ (re.* (str.to_re "'''"))) (re.++ (re.union (re.union (str.to_re "(") (str.to_re ")")) (re.union (str.to_re "***") (str.to_re "++"))) (re.++ (re.+ (re.union (str.to_re ",,,") (str.to_re "--"))) (re.++ (re.* (re.* (str.to_re ".."))) (re.++ (re.+ (re.+ (str.to_re "///"))) (re.++ (re.+ (re.* (str.to_re ":::"))) (re.++ (re.union (re.* (str.to_re ";")) (re.* (str.to_re "<<"))) (re.++ (re.union (re.* (str.to_re "=")) (re.* (str.to_re ">>"))) (re.++ (re.union (re.* (str.to_re "?")) (re.* (str.to_re "@@@"))) (re.++ (re.union (re.+ (str.to_re "[[")) (re.+ (str.to_re "\\"))) (re.++ (re.+ (re.+ (str.to_re "]]]"))) (re.++ (re.+ (re.union (str.to_re "^^") (str.to_re "___"))) (re.++ (re.union (re.* (str.to_re "`")) (re.* (str.to_re "{{{"))) (re.++ (re.* (re.union (str.to_re "|") (str.to_re "}}"))) (re.++ (re.+ (re.* (str.to_re "~~"))) (re.union (re.union (str.to_re "0") (str.to_re "111")) (re.union (str.to_re "2") (str.to_re "333")))))))))))))))))))))))))))))))))))))))))))))))))))))))))))))))))))))))))))))))))))))))))))))))))))))))))))))))))))))
(check-sat)